[VALIDATOR STDOUT]
Checking plan: /home/jfan5/Safety-gen/runs/benchmark/optic/delivery_20260205_114717/delivery/optic_results/delivery_size40_packages1_seed40001.plan
Plan executed successfully - checking goal
Plan valid
Final value: 140 

Successful plans:
Value: 140
 /home/jfan5/Safety-gen/runs/benchmark/optic/delivery_20260205_114717/delivery/optic_results/delivery_size40_packages1_seed40001.plan 140
